HorasDisponibles = 24 ; 		% Cantidad de horas habiles para que barco pueda partir

NumBarcos = 52 ; 		% Cantidad de barcos que cruzaran el canal

NumCanales = 3;  

Velocidades = [ 
66000  ,		%  Barco 1
66000  ,		%  Barco 2
66000  ,		%  Barco 3
548  ,		%  Barco 4
527  ,		%  Barco 5
297  ,		%  Barco 6
856  ,		%  Barco 7
479  ,		%  Barco 8
451  ,		%  Barco 9
615  ,		%  Barco 10
638  ,		%  Barco 11
738  ,		%  Barco 12
548  ,		%  Barco 13
810  ,		%  Barco 14
381  ,		%  Barco 15
329  ,		%  Barco 16
303  ,		%  Barco 17
485  ,		%  Barco 18
350  ,		%  Barco 19
749  ,		%  Barco 20
528  ,		%  Barco 21
522  ,		%  Barco 22
648  ,		%  Barco 23
436  ,		%  Barco 24
572  ,		%  Barco 25
500  ,		%  Barco 26
602  ,		%  Barco 27
385  ,		%  Barco 28
736  ,		%  Barco 29
213  ,		%  Barco 30
210  ,		%  Barco 31
910  ,		%  Barco 32
775  ,		%  Barco 33
708  ,		%  Barco 34
424  ,		%  Barco 35
640  ,		%  Barco 36
479  ,		%  Barco 37
361  ,		%  Barco 38
232  ,		%  Barco 39
735  ,		%  Barco 40
645  ,		%  Barco 41
900  ,		%  Barco 42
507  ,		%  Barco 43
424  ,		%  Barco 44
680  ,		%  Barco 45
628  ,		%  Barco 46
591  ,		%  Barco 47
506  ,		%  Barco 48
341  ,		%  Barco 49
426  ,		%  Barco 50
637  ,		%  Barco 51
536  ,		%  Barco 52
460  ,		%  Barco 53
631  ,		%  Barco 54
469  ,		%  Barco 55
66000  ,		%  Barco 56
66000  ,		%  Barco 57
66000  ,		%  Barco 58
 ]; 
HoraEstimadaCruce = [ 
0  ,		%  Barco 1
0  ,		%  Barco 2
0  ,		%  Barco 3
16  ,		%  Barco 4
11  ,		%  Barco 5
21  ,		%  Barco 6
15  ,		%  Barco 7
16  ,		%  Barco 8
5  ,		%  Barco 9
7  ,		%  Barco 10
13  ,		%  Barco 11
2  ,		%  Barco 12
12  ,		%  Barco 13
0  ,		%  Barco 14
22  ,		%  Barco 15
3  ,		%  Barco 16
10  ,		%  Barco 17
20  ,		%  Barco 18
3  ,		%  Barco 19
19  ,		%  Barco 20
22  ,		%  Barco 21
6  ,		%  Barco 22
22  ,		%  Barco 23
23  ,		%  Barco 24
2  ,		%  Barco 25
17  ,		%  Barco 26
1  ,		%  Barco 27
2  ,		%  Barco 28
22  ,		%  Barco 29
23  ,		%  Barco 30
14  ,		%  Barco 31
8  ,		%  Barco 32
24  ,		%  Barco 33
7  ,		%  Barco 34
22  ,		%  Barco 35
14  ,		%  Barco 36
6  ,		%  Barco 37
19  ,		%  Barco 38
23  ,		%  Barco 39
13  ,		%  Barco 40
16  ,		%  Barco 41
20  ,		%  Barco 42
6  ,		%  Barco 43
18  ,		%  Barco 44
13  ,		%  Barco 45
21  ,		%  Barco 46
1  ,		%  Barco 47
13  ,		%  Barco 48
18  ,		%  Barco 49
24  ,		%  Barco 50
13  ,		%  Barco 51
21  ,		%  Barco 52
21  ,		%  Barco 53
16  ,		%  Barco 54
23  ,		%  Barco 55
24  ,		%  Barco 56
24  ,		%  Barco 57
24  ,		%  Barco 58
 ]; 
PuntoDeArranque = [ 
0  ,		%  Barco 1
0  ,		%  Barco 2
0  ,		%  Barco 3
0  ,		%  Barco 4
1  ,		%  Barco 5
0  ,		%  Barco 6
1  ,		%  Barco 7
0  ,		%  Barco 8
0  ,		%  Barco 9
0  ,		%  Barco 10
0  ,		%  Barco 11
1  ,		%  Barco 12
1  ,		%  Barco 13
1  ,		%  Barco 14
1  ,		%  Barco 15
0  ,		%  Barco 16
0  ,		%  Barco 17
1  ,		%  Barco 18
0  ,		%  Barco 19
1  ,		%  Barco 20
1  ,		%  Barco 21
1  ,		%  Barco 22
0  ,		%  Barco 23
0  ,		%  Barco 24
1  ,		%  Barco 25
0  ,		%  Barco 26
1  ,		%  Barco 27
1  ,		%  Barco 28
0  ,		%  Barco 29
1  ,		%  Barco 30
1  ,		%  Barco 31
0  ,		%  Barco 32
1  ,		%  Barco 33
1  ,		%  Barco 34
0  ,		%  Barco 35
1  ,		%  Barco 36
0  ,		%  Barco 37
1  ,		%  Barco 38
0  ,		%  Barco 39
0  ,		%  Barco 40
0  ,		%  Barco 41
1  ,		%  Barco 42
0  ,		%  Barco 43
1  ,		%  Barco 44
0  ,		%  Barco 45
1  ,		%  Barco 46
0  ,		%  Barco 47
1  ,		%  Barco 48
0  ,		%  Barco 49
1  ,		%  Barco 50
1  ,		%  Barco 51
0  ,		%  Barco 52
0  ,		%  Barco 53
1  ,		%  Barco 54
1  ,		%  Barco 55
0  ,		%  Barco 56
0  ,		%  Barco 57
0  ,		%  Barco 58
 ]; 
